Optimal - objective value 43.00000000
      0 x_0                    1                      -3
      1 x_1                    0                       0
      2 x_2                    0                       0
      3 x_3                    1                       0
      4 x_4                    0                       0
      5 x_5                    0                       7
      6 x_6                    1                       0
Optimal - objective value 43.00000000
      0 x_0                    1                      -3
      1 x_1                    0                       0
      2 x_2                    0                       0
      3 x_3                    1                       0
      4 x_4                    0                       0
      5 x_5                    0                       7
      6 x_6                    1                       0
